%nprocshared=2
%mem=6GB
%chk=pyrazine-s1.chk
#p freq=savenormalmodes td=(nstates=6,root=1) b3lyp/6-31+g(d)

pyrazine

0 1
 C                 -1.12603800    0.73754300    0.00000000
 C                 -1.20730400   -0.68241600    0.00000000
 N                 -0.01437000   -1.36128400    0.00000000
 C                  1.12603800   -0.73754300    0.00000000
 C                  1.20730300    0.68241600    0.00000100
 N                  0.01437000    1.36128400    0.00000000
 H                 -2.05726200    1.30532900    0.00000000
 H                 -2.15599800   -1.20045900    0.00000200
 H                  2.05726200   -1.30532900   -0.00000100
 H                  2.15599800    1.20045900   -0.00000100




